
Gurobi 12.0.3 (linux64) logging started Fri Jan  2 04:16:21 2026

Set parameter LogFile to value "/home/bazzo/Scrivania/fjsp_rescheduling/simulations/logs/EX24/gurobi_exp24.log"
Set parameter OutputFlag to value 1
Set parameter TimeLimit to value 2160
Set parameter Presolve to value 2
Set parameter MIPFocus to value 3
Set parameter Heuristics to value 0.1
Set parameter ImproveStartGap to value 0.5
Set parameter Presolve to value 2
Gurobi Optimizer version 12.0.3 build v12.0.3rc0 (linux64 - "Ubuntu 22.04.5 LTS")

CPU model: Intel(R) Xeon(R) W-2145 CPU @ 3.70GHz, instruction set [SSE2|AVX|AVX2|AVX512]
Thread count: 8 physical cores, 16 logical processors, using up to 16 threads

Non-default parameters:
TimeLimit  2160
Heuristics  0.1
MIPFocus  3
Presolve  2
ImproveStartGap  0.5

Optimize a model with 2834 rows, 1927 columns and 10951 nonzeros
Model fingerprint: 0x8038549f
Model has 9 quadratic constraints
Variable types: 9 continuous, 1918 integer (1836 binary)
Coefficient statistics:
  Matrix range     [1e+00, 4e+03]
  QMatrix range    [1e+00, 1e+00]
  QLMatrix range   [1e+00, 1e+00]
  Objective range  [1e+00, 1e+00]
  Bounds range     [1e+00, 1e+00]
  RHS range        [1e+00, 1e+04]
Presolve removed 2521 rows and 1768 columns
Presolve time: 0.01s
Presolved: 313 rows, 159 columns, 1439 nonzeros
Presolved model has 8 quadratic constraint(s)
Variable types: 8 continuous, 151 integer (132 binary)
Root relaxation presolve removed 313 rows and 159 columns
Root relaxation presolve: All rows and columns removed

Root relaxation: objective 0.000000e+00, 0 iterations, 0.00 seconds (0.00 work units)

    Nodes    |    Current Node    |     Objective Bounds      |     Work
 Expl Unexpl |  Obj  Depth IntInf | Incumbent    BestBd   Gap | It/Node Time

H    0     0                    1.720956e+07    0.00000   100%     -    0s
*    0     0               0    1.720956e+07    0.00000   100%     -    0s
     0     0    0.00000    0   13 1.7210e+07    0.00000   100%     -    0s
H    0     0                    2579907.0000    0.00000   100%     -    0s
     0     0    0.00000    0   14 2579907.00    0.00000   100%     -    0s
H    0     0                    1144011.0000    0.00000   100%     -    0s
H    0     0                    1143150.0000    0.00000   100%     -    0s
     0     0    0.00000    0   12 1143150.00    0.00000   100%     -    0s
H    0     0                    400594.00000    0.00000   100%     -    0s
H    0     0                    376594.00000    0.00000   100%     -    0s
H    0     0                    313894.00000 18574.0000  94.1%     -    0s
H    0     0                    219414.00000 18574.0000  91.5%     -    0s
H    0     0                    147214.00000 18574.0000  87.4%     -    0s
H    0     0                    136633.00000 18574.0000  86.4%     -    0s
     0     0 22500.0000    0    7 136633.000 22500.0000  83.5%     -    0s
H    0     0                    108008.00000 22500.0000  79.2%     -    0s
H    0     0                    86544.000000 22500.0000  74.0%     -    0s
H    0     0                    86323.000000 22500.0000  73.9%     -    0s
H    0     0                    86043.000000 22500.0000  73.9%     -    0s
H    0     0                    81616.000000 22500.0000  72.4%     -    0s
     0     0 26725.0000    0    9 81616.0000 26725.0000  67.3%     -    0s
     0     0 35671.0000    0   15 81616.0000 35671.0000  56.3%     -    0s
     0     0 35671.0000    0   13 81616.0000 35671.0000  56.3%     -    0s

Resetting heuristic parameters to focus on improving solution
(using Heuristics=0.5 and RINS=10)...

     0     0 43308.0000    0   14 81616.0000 43308.0000  46.9%     -    0s
     0     0 43308.0000    0   23 81616.0000 43308.0000  46.9%     -    0s
     0     0 43308.0000    0   14 81616.0000 43308.0000  46.9%     -    0s
     0     0 43308.0000    0   18 81616.0000 43308.0000  46.9%     -    0s
     0     0 43308.0000    0    9 81616.0000 43308.0000  46.9%     -    0s
     0     2 43308.0000    0    9 81616.0000 43308.0000  46.9%     -    0s
     1     4 43308.0000    1    8 81616.0000 43308.0000  46.9%   7.0    0s

Cutting planes:
  Learned: 36
  Gomory: 26
  Lift-and-project: 6
  Cover: 6
  Implied bound: 37
  MIR: 39
  Mixing: 5
  StrongCG: 62
  Flow cover: 427
  Zero half: 3
  RLT: 10
  Relax-and-lift: 12

Explored 381 nodes (5398 simplex iterations) in 0.65 seconds (0.43 work units)
Thread count was 16 (of 16 available processors)

Solution count 10: 81616 86043 86323 ... 376594

Optimal solution found (tolerance 1.00e-04)
Best objective 8.161600000000e+04, best bound 8.161600000000e+04, gap 0.0000%

User-callback calls 1916, time in user-callback 0.00 sec
Set parameter TimeLimit to value 1080
Gurobi Optimizer version 12.0.3 build v12.0.3rc0 (linux64 - "Ubuntu 22.04.5 LTS")

CPU model: Intel(R) Xeon(R) W-2145 CPU @ 3.70GHz, instruction set [SSE2|AVX|AVX2|AVX512]
Thread count: 8 physical cores, 16 logical processors, using up to 16 threads

Non-default parameters:
TimeLimit  1080
Heuristics  0.1
MIPFocus  3
Presolve  2
ImproveStartGap  0.5

Optimize a model with 2835 rows, 1927 columns and 10960 nonzeros
Model fingerprint: 0x74b8067c
Model has 9 quadratic constraints
Variable types: 9 continuous, 1918 integer (1836 binary)
Coefficient statistics:
  Matrix range     [1e+00, 4e+03]
  QMatrix range    [1e+00, 1e+00]
  QLMatrix range   [1e+00, 1e+00]
  Objective range  [5e-01, 5e-01]
  Bounds range     [1e+00, 1e+00]
  RHS range        [1e+00, 9e+04]

MIP start from previous solve produced solution with objective 43 (0.00s)
Loaded MIP start from previous solve with objective 43

Presolve removed 2547 rows and 1779 columns
Presolve time: 0.02s
Presolved: 288 rows, 148 columns, 1291 nonzeros
Presolved model has 8 quadratic constraint(s)
Found heuristic solution: objective 4.0000000
Variable types: 8 continuous, 140 integer (121 binary)

Explored 0 nodes (0 simplex iterations) in 0.03 seconds (0.02 work units)
Thread count was 16 (of 16 available processors)

Solution count 2: 4 43 

Optimal solution found (tolerance 1.00e-04)
Best objective 4.000000000000e+00, best bound 4.000000000000e+00, gap 0.0000%

User-callback calls 946, time in user-callback 0.00 sec
Set parameter TimeLimit to value 360
Gurobi Optimizer version 12.0.3 build v12.0.3rc0 (linux64 - "Ubuntu 22.04.5 LTS")

CPU model: Intel(R) Xeon(R) W-2145 CPU @ 3.70GHz, instruction set [SSE2|AVX|AVX2|AVX512]
Thread count: 8 physical cores, 16 logical processors, using up to 16 threads

Non-default parameters:
TimeLimit  360
Heuristics  0.1
MIPFocus  3
Presolve  2
ImproveStartGap  0.5

Optimize a model with 2837 rows, 1927 columns and 11055 nonzeros
Model fingerprint: 0xf6821dee
Model has 9 quadratic constraints
Variable types: 9 continuous, 1918 integer (1836 binary)
Coefficient statistics:
  Matrix range     [5e-01, 4e+03]
  QMatrix range    [1e+00, 1e+00]
  QLMatrix range   [1e+00, 1e+00]
  Objective range  [1e+00, 1e+00]
  Bounds range     [1e+00, 1e+00]
  RHS range        [1e+00, 9e+04]

MIP start from previous solve produced solution with objective 1049 (0.00s)
Loaded MIP start from previous solve with objective 1049

Presolve removed 2760 rows and 1878 columns
Presolve time: 0.01s
Presolved: 77 rows, 49 columns, 297 nonzeros
Presolved model has 8 quadratic constraint(s)
Variable types: 8 continuous, 41 integer (27 binary)

Resetting heuristic parameters to focus on improving solution
(using Heuristics=0.5 and RINS=10)...

Root relaxation presolve removed 40 rows and 26 columns
Root relaxation presolved: 37 rows, 23 columns, 131 nonzeros


Root relaxation: objective 1.029000e+03, 4 iterations, 0.00 seconds (0.00 work units)

    Nodes    |    Current Node    |     Objective Bounds      |     Work
 Expl Unexpl |  Obj  Depth IntInf | Incumbent    BestBd   Gap | It/Node Time

     0     0 1029.00000    0    2 1049.00000 1029.00000  1.91%     -    0s
     0     0 infeasible    0      1049.00000 1049.00000  0.00%     -    0s

Explored 1 nodes (56 simplex iterations) in 0.01 seconds (0.01 work units)
Thread count was 16 (of 16 available processors)

Solution count 1: 1049 

Optimal solution found (tolerance 1.00e-04)
Best objective 1.049000000000e+03, best bound 1.049000000000e+03, gap 0.0000%

User-callback calls 1221, time in user-callback 0.00 sec
